44 47
80 51
92 72
62 38
1 74
44 85
16 82
79 98
60 66
73 30
3 95
45 83
9 76
28 85
56 36
11 97
22 28
72 71
53 65
35 80
18 52
89 45
89 16
73 47
88 10
54 72
49 51
65 91
78 72
41 37
44 77
89 86
5 6
11 19
77 3
72 75
17 60
9 75
25 75
38 66
28 11
10 56
70 91
13 55
15 7
41 85
20 44
13 28
39 84
16 38
62 12
33 54
54 5
81 44
63 41
99 97
95 45
31 63
83 48
61 33
31 40
15 89
77 19
53 30
84 29
60 72
21 19
40 99
95 87
78 74
84 24
94 21
9 16
60 8
12 3
19 76
83 55
62 11
57 54
33 86
66 91
53 92
36 2
55 24
53 61
2 94
64 10
3 68
97 63
98 74
74 91
27 26
84 33
10 27
28 39
17 79
94 19
3 44
39 78
82 0
